robust/generate/spp_dkp_Lefebvre_et_al_2026/src/shortest_path_2_8.kp
50
88

[21.76 10.04]

[88 86]
